
Gurobi 11.0.1 (win64) logging started Thu Mar 14 08:02:07 2024

Set parameter LogFile to value "C:\Projetos\Job_Rotation_Algorithms\Outputs\GurobiLogs\gurobi_log-output-5_ros-c18-BorbaRittModel-NoExtraConstraint-2.log"
Gurobi Optimizer version 11.0.1 build v11.0.1rc0 (win64 - Windows 10.0 (19045.2))

CPU model: 11th Gen Intel(R) Core(TM) i7-1165G7 @ 2.80GHz, instruction set [SSE2|AVX|AVX2|AVX512]
Thread count: 4 physical cores, 8 logical processors, using up to 1 threads


Gurobi 11.0.1 (win64) logging started Fri Mar 15 00:39:35 2024

Set parameter LogFile to value "C:\Projetos\Job_Rotation_Algorithms\Outputs\GurobiLogs\gurobi_log-output-5_ros-c18-BorbaRittModel-NoExtraConstraint-2.log"
Gurobi Optimizer version 11.0.1 build v11.0.1rc0 (win64 - Windows 10.0 (19045.2))

CPU model: 11th Gen Intel(R) Core(TM) i7-1165G7 @ 2.80GHz, instruction set [SSE2|AVX|AVX2|AVX512]
Thread count: 4 physical cores, 8 logical processors, using up to 1 threads


Gurobi 11.0.1 (win64) logging started Sat Mar 16 12:25:50 2024

Set parameter LogFile to value "C:\Projetos\Job_Rotation_Algorithms\Outputs\GurobiLogs\gurobi_log-output-5_ros-c18-BorbaRittModel-NoExtraConstraint-2.log"
Gurobi Optimizer version 11.0.1 build v11.0.1rc0 (win64 - Windows 10.0 (19045.2))

CPU model: 11th Gen Intel(R) Core(TM) i7-1165G7 @ 2.80GHz, instruction set [SSE2|AVX|AVX2|AVX512]
Thread count: 4 physical cores, 8 logical processors, using up to 1 threads


Gurobi 11.0.1 (win64) logging started Sat Mar 16 22:34:51 2024

Set parameter LogFile to value "C:\Projetos\Job_Rotation_Algorithms\Outputs\GurobiLogs\gurobi_log-output-5_ros-c18-BorbaRittModel-NoExtraConstraint-2.log"
Gurobi Optimizer version 11.0.1 build v11.0.1rc0 (win64 - Windows 10.0 (19045.2))

CPU model: 11th Gen Intel(R) Core(TM) i7-1165G7 @ 2.80GHz, instruction set [SSE2|AVX|AVX2|AVX512]
Thread count: 4 physical cores, 8 logical processors, using up to 1 threads


Gurobi 11.0.1 (win64) logging started Sun Mar 17 01:26:41 2024

Set parameter LogFile to value "C:\Projetos\Job_Rotation_Algorithms\Outputs\GurobiLogs\gurobi_log-output-5_ros-c18-BorbaRittModel-NoExtraConstraint-2.log"
Gurobi Optimizer version 11.0.1 build v11.0.1rc0 (win64 - Windows 10.0 (19045.2))

CPU model: 11th Gen Intel(R) Core(TM) i7-1165G7 @ 2.80GHz, instruction set [SSE2|AVX|AVX2|AVX512]
Thread count: 4 physical cores, 8 logical processors, using up to 1 threads

WLS license 901039 - registered to Bitka Analytics
Optimize a model with 857 rows, 302 columns and 2760 nonzeros
Model fingerprint: 0x2a30ea87
Variable types: 2 continuous, 300 integer (300 binary)
Coefficient statistics:
  Matrix range     [1e+00, 1e+01]
  Objective range  [1e+00, 1e+00]
  Bounds range     [1e+00, 4e+01]
  RHS range        [1e+00, 4e+01]
Presolve removed 3 rows and 3 columns
Presolve time: 0.00s
Presolved: 854 rows, 299 columns, 2754 nonzeros
Variable types: 0 continuous, 299 integer (298 binary)

Root relaxation: objective 5.000000e+01, 414 iterations, 0.00 seconds (0.01 work units)

    Nodes    |    Current Node    |     Objective Bounds      |     Work
 Expl Unexpl |  Obj  Depth IntInf | Incumbent    BestBd   Gap | It/Node Time

     0     0   50.00000    0  103          -   50.00000      -     -    0s
     0     0   50.00000    0  141          -   50.00000      -     -    0s
     0     0   50.00000    0   98          -   50.00000      -     -    0s
     0     0   50.00000    0   95          -   50.00000      -     -    0s
     0     0   50.00000    0   92          -   50.00000      -     -    0s
     0     0   50.00000    0   85          -   50.00000      -     -    0s
     0     0   50.00000    0  103          -   50.00000      -     -    0s
     0     0   50.00000    0   76          -   50.00000      -     -    0s
     0     0   50.00000    0  132          -   50.00000      -     -    0s
     0     0   50.00000    0  125          -   50.00000      -     -    0s
     0     0   50.00000    0  131          -   50.00000      -     -    0s
     0     0   50.00000    0  131          -   50.00000      -     -    0s
     0     2   50.00000    0  112          -   50.00000      -     -    0s
H 1261   366                      38.0000000   50.00000  31.6%  30.4    3s
H 1261   349                      40.0000000   50.00000  25.0%  30.4    3s
H 1313   325                      41.0000000   50.00000  22.0%  32.5    4s
  1571   299   49.72295   32  129   41.00000   50.00000  22.0%  42.0    5s
H 2425   297                      43.0000000   50.00000  16.3%  64.5    7s
H 2433   295                      44.0000000   50.00000  13.6%  64.3    7s
  3044   327     cutoff   29        44.00000   50.00000  13.6%  71.8   10s
H 3100   314                      45.0000000   50.00000  11.1%  72.7   10s
  3672   280 infeasible   29        45.00000   50.00000  11.1%  77.7   15s
  4854   348 infeasible   22        45.00000   50.00000  11.1%  83.7   20s
  6057   403   46.46471   28   90   45.00000   50.00000  11.1%  87.6   25s
  7414   437 infeasible   35        45.00000   50.00000  11.1%  90.9   30s

Cutting planes:
  Gomory: 1
  MIR: 1
  Flow cover: 5
  RLT: 2

Explored 10947 nodes (846187 simplex iterations) in 33.83 seconds (32.80 work units)
Thread count was 1 (of 8 available processors)

Solution count 6: 45 44 43 ... 38

Optimal solution found (tolerance 1.00e-03)
Best objective 4.500000000000e+01, best bound 4.500000000000e+01, gap 0.0000%
